%nprocshared=8
%mem=16gb
# opt=(maxcycles=500,noeigentest) freq m06/gen pseudo=read temperature=298

output test batch

0 1
Sn       0.002540000     -0.448927000      0.686633000
O       -1.421665000     -1.512456000     -0.506232000
C       -2.435542000     -0.877650000     -0.088770000
O        1.430884000     -1.500868000     -0.513136000
C        2.442059000     -0.864579000     -0.091667000
O       -0.003848000      1.147338000     -0.684466000
C       -0.003915000      2.063063000      0.200918000
O        2.352075000      0.041104000      0.738017000
O       -2.349489000      0.032163000      0.736736000
O       -0.001159000      1.805871000      1.401100000
C        0.020220000     -1.359487000      2.587884000
H       -0.944535000     -1.181412000      3.059105000
H        0.198747000     -2.426594000      2.463339000
H        0.820965000     -0.900093000      3.164511000
C       -0.016066000      3.508891000     -0.324018000
C       -3.795502000     -1.319437000     -0.658958000
C        3.804281000     -1.298671000     -0.662318000
F        4.042046000     -2.555019000     -0.313559000
F        4.777592000     -0.540597000     -0.206392000
F        3.783208000     -1.222186000     -1.981994000
F        1.016966000      3.698516000     -1.127350000
F        0.045903000      4.372837000      0.664108000
F       -1.130401000      3.715154000     -1.007406000
F       -4.771853000     -0.561728000     -0.209029000
F       -4.029780000     -2.574420000     -0.303064000
F       -3.772545000     -1.250731000     -1.979001000

!----------------------------------------------------------------------
! Basis Set Exchange
! Version v0.9
! https://www.basissetexchange.org
!----------------------------------------------------------------------
!   Basis set: def2-TZVPD
! Description: def2-TZVPD
!        Role: orbital
!     Version: 1  (Data from Turbomole 7.3)
!----------------------------------------------------------------------
Sn     0
S    4   1.00
   1577.0715931              0.17042767713D-03
    235.26601078             0.81467057272D-03
     38.206330645           -0.39057904293D-02
     13.097031765            0.53245922343
S    2   1.00
     11.681492759            1.5435287275
      5.9647604361           0.76421510041
S    1   1.00
      1.8891070740           1.0000000
S    1   1.00
      0.88514080630          1.0000000
S    1   1.00
      0.20500105152          1.0000000
S    1   1.00
      0.76748551032D-01      1.0000000
S    1   1.00
      0.29138072540D-01      1.0000000
P    3   1.00
    221.55767496             0.31125177983D-03
     21.084021433            0.31108097016D-01
      8.7600138521          -0.27571560918
P    3   1.00
      2.5912909722           0.45912328666
      1.3426801157           0.49682867217
      0.67732735829          0.18962377821
P    1   1.00
      0.29418756752          1.0000000
P    1   1.00
      0.11863762052          1.0000000
P    1   1.00
      0.46215750632D-01      1.0000000
D    6   1.00
    108.33210154             0.46561853277D-03
     23.703936630            0.54063163067D-01
     22.339843906           -0.58928768877D-01
      4.0874834028           0.19588500896
      1.9737354146           0.42301799185
      0.90158257692          0.39252716176
D    1   1.00
      0.38237153649          1.0000000
D    1   1.00
      0.12000000000          1.0000000
D    1   1.00
      0.42090514124D-01      1.0000000
F    1   1.00
      1.0000000              1.0000000
F    1   1.00
      0.2939284850           1.0000000
****
O     0
S    6   1.00
  27032.3826310              0.21726302465D-03
   4052.3871392              0.16838662199D-02
    922.32722710             0.87395616265D-02
    261.24070989             0.35239968808D-01
     85.354641351            0.11153519115
     31.035035245            0.25588953961
S    2   1.00
     12.260860728            0.39768730901
      4.9987076005           0.24627849430
S    1   1.00
      1.1703108158           1.0000000
S    1   1.00
      0.46474740994          1.0000000
S    1   1.00
      0.18504536357          1.0000000
S    1   1.00
      0.70288026270D-01      1.0000000
P    4   1.00
     63.274954801            0.60685103418D-02
     14.627049379            0.41912575824D-01
      4.4501223456           0.16153841088
      1.5275799647           0.35706951311
P    1   1.00
      0.52935117943           .44794207502
P    1   1.00
      0.17478421270           .24446069663
P    1   1.00
      0.51112745706D-01      1.0000000
D    1   1.00
      2.31400000             1.0000000
D    1   1.00
      0.64500000             1.0000000
D    1   1.00
      0.14696477366          1.0000000
F    1   1.00
      1.42800000             1.0000000
****
C     0
S    6   1.00
  13575.3496820              0.22245814352D-03
   2035.2333680              0.17232738252D-02
    463.22562359             0.89255715314D-02
    131.20019598             0.35727984502D-01
     42.853015891            0.11076259931
     15.584185766            0.24295627626
S    2   1.00
      6.2067138508           0.41440263448
      2.5764896527           0.23744968655
S    1   1.00
      0.57696339419          1.0000000
S    1   1.00
      0.22972831358          1.0000000
S    1   1.00
      0.95164440028D-01      1.0000000
S    1   1.00
      0.48475401370D-01      1.0000000
P    4   1.00
     34.697232244            0.53333657805D-02
      7.9582622826           0.35864109092D-01
      2.3780826883           0.14215873329
      0.81433208183          0.34270471845
P    1   1.00
      0.28887547253           .46445822433
P    1   1.00
      0.10056823671           .24955789874
D    1   1.00
      1.09700000             1.0000000
D    1   1.00
      0.31800000             1.0000000
D    1   1.00
      0.90985336424D-01      1.0000000
F    1   1.00
      0.76100000             1.0000000
****
H     0
S    3   1.00
     34.0613410              0.60251978D-02
      5.1235746              0.45021094D-01
      1.1646626              0.20189726
S    1   1.00
      0.32723041             1.0000000
S    1   1.00
      0.10307241             1.0000000
P    1   1.00
      0.8000000              1.0000000
P    1   1.00
      0.95774129632D-01      1.0000000
****
F     0
S    6   1.00
  35479.1004410              0.21545014888D-03
   5318.4728983              0.16700686527D-02
   1210.4810975              0.86733211476D-02
    342.85518140             0.35049933175D-01
    112.01943181             0.11165320133
     40.714740248            0.25988506647
S    2   1.00
     16.039678111            0.39422966880
      6.5038186740           0.24998238551
S    1   1.00
      1.5440477509           1.0000000
S    1   1.00
      0.61223452862          1.0000000
S    1   1.00
      0.24027979698          1.0000000
S    1   1.00
      0.90918446478D-01      1.0000000
P    4   1.00
     80.233900483            0.63685999134D-02
     18.594010743            0.44303143530D-01
      5.6867902653           0.16867248708
      1.9511006294           0.36166346255
P    1   1.00
      0.66970211298           .44202901491
P    1   1.00
      0.21651300410           .24319875730
P    1   1.00
      0.59613282472D-01      1.0000000
D    1   1.00
      3.10700000             1.0000000
D    1   1.00
      0.85500000             1.0000000
D    1   1.00
      0.18608388111          1.0000000
F    1   1.00
      1.91700000             1.0000000
****

SN     0
SN-ECP     3     28
f potential
  2
2     12.28234800           -12.57633300
2     12.27215000           -16.59594400
s-f potential
  4
2     17.42041400           279.98868200
2      7.63115500            62.37781000
2     12.28234800            12.57633300
2     12.27215000            16.59594400
p-f potential
  6
2     16.13102400            66.16252300
2     15.62807700           132.17439600
2      7.32560800            16.33941700
2      6.94251900            32.48895900
2     12.28234800            12.57633300
2     12.27215000            16.59594400
d-f potential
  6
2     15.51497600            36.38744100
2     15.18816000            54.50784100
2      5.45602400             8.69682300
2      5.36310500            12.84020800
2     12.28234800            12.57633300
2     12.27215000            16.59594400

